Features/ForMiniZinc/benchmark_puzzles/benchmarks8x8/80/puzzle15.dzn
S = 8;
start = [|0,0,0,46,0,17,55,0,0,0,0,0,0,0,0,0,2,0,0,0,28,0,0,0,21,0,0,0,0,0,0,0,27,0,0,0,0,0,0,0,0,0,49,0,26,41,0,10,0,38,20,0,0,0,0,0,32,24,0,0,0,0,0,0|
0,0,0,38,0,0,0,0,0,0,0,34,0,35,0,0,0,0,14,0,0,0,0,39,0,64,0,0,0,0,0,0,37,0,49,0,52,0,0,63,0,11,57,0,0,0,0,0,0,0,15,0,0,0,0,31,0,10,0,0,0,0,0,0|
0,0,0,0,0,0,61,28,0,22,0,0,0,0,0,0,0,0,0,0,0,0,0,0,0,0,0,0,0,0,0,1,0,35,45,0,0,60,0,39,0,0,31,0,0,0,0,0,51,0,0,0,0,0,0,0,0,0,34,0,23,0,0,0|
0,0,0,12,0,0,0,57,59,0,18,0,0,0,0,0,6,64,0,0,0,0,0,0,37,0,0,0,0,50,0,24,0,0,20,44,0,0,0,0,0,0,0,0,0,63,0,0,0,23,11,0,0,0,0,0,0,0,0,0,0,0,0,0|
0,0,0,0,0,0,0,0,43,0,23,0,0,0,0,0,0,0,24,61,0,0,0,0,0,0,0,0,0,51,0,0,0,0,0,0,0,53,32,0,0,0,50,0,0,0,0,0,0,0,0,0,0,0,0,0,0,2,0,0,0,0,0,0|
0,0,0,0,0,0,0,0,0,0,0,0,24,19,0,0,0,0,0,0,31,15,0,0,0,45,0,0,0,0,0,32,0,0,33,0,1,0,0,28,13,0,0,14,0,0,59,0,50,0,27,3,44,0,0,0,0,0,0,0,0,0,21,0|
0,4,0,0,0,0,0,0,49,0,0,0,0,0,41,0,0,5,0,0,0,0,0,0,0,0,42,0,0,7,0,30,0,0,0,0,0,0,0,0,0,1,23,0,0,21,0,0,0,0,0,0,0,0,29,0,54,0,13,0,0,0,0,0|
34,0,0,0,0,2,33,0,50,17,0,14,0,0,0,0,11,0,0,0,0,0,30,0,43,3,0,0,0,0,0,0,46,0,31,0,0,5,0,9,0,0,0,0,0,35,0,0,0,0,0,0,0,0,0,0,0,63,0,0,0,0,0,0|
0,0,0,0,0,0,0,35,0,6,0,0,0,0,15,0,0,0,10,0,0,0,0,0,0,31,0,47,0,0,0,0,0,0,0,29,0,0,42,0,0,0,12,0,0,0,0,0,0,0,0,0,0,0,28,0,0,0,0,0,0,0,0,0|
0,0,0,16,0,0,0,23,0,0,0,0,61,0,0,0,0,0,0,0,0,0,0,50,0,0,0,8,0,0,0,0,0,0,0,52,0,0,63,0,0,59,0,0,0,0,5,0,0,0,0,0,0,0,0,25,15,55,0,1,0,49,0,0|
0,62,0,0,0,0,0,0,0,0,24,21,0,0,0,0,0,0,0,8,6,0,0,52,0,0,0,0,0,0,0,0,0,0,0,0,0,0,0,0,0,0,0,0,0,0,0,0,15,0,0,31,0,48,0,0,0,0,0,0,0,28,0,7|
0,0,0,0,0,0,27,0,0,0,0,0,0,0,0,0,0,0,0,0,0,9,0,11,0,0,0,0,0,0,3,56,17,0,0,0,0,0,0,0,0,37,0,0,0,0,0,28,0,0,0,0,0,0,0,0,0,0,0,0,0,0,39,0|
21,0,15,0,61,0,0,0,0,0,0,0,0,4,0,32,0,0,0,0,0,0,0,0,0,0,0,0,0,0,0,64,0,0,0,0,3,0,0,0,0,0,0,0,0,0,0,0,0,0,0,0,0,0,9,35,0,0,0,0,0,58,0,0|
0,25,0,0,0,0,0,30,0,13,0,0,0,0,0,0,14,0,0,0,38,0,0,0,0,0,0,58,0,24,45,0,60,0,0,0,0,0,0,0,0,0,33,0,0,0,44,0,0,0,0,19,0,0,0,0,0,0,0,34,0,0,0,0|
45,0,0,0,0,36,0,0,0,0,9,2,30,41,52,17,33,0,15,0,0,0,59,0,0,0,0,0,0,0,44,0,0,0,0,0,0,0,0,0,0,0,60,0,0,55,0,0,0,56,0,13,0,0,0,20,3,0,0,0,0,0,0,0|
0,6,0,0,0,0,0,0,19,0,0,0,0,0,0,0,0,0,0,0,0,0,0,0,0,16,0,0,20,0,0,0,0,0,0,0,0,0,0,0,0,39,32,0,0,0,0,0,2,0,0,0,0,0,0,0,0,0,0,0,0,0,0,0|
0,0,0,0,0,0,0,0,0,60,0,0,0,0,0,0,0,0,0,0,53,0,11,0,16,0,29,0,0,0,0,0,0,0,0,19,0,0,0,0,0,0,0,0,0,48,0,0,0,0,14,0,0,0,0,0,18,0,0,0,0,0,0,0|
0,0,0,0,0,0,0,0,0,0,0,53,0,0,0,50,0,0,0,0,55,0,0,0,0,0,19,0,0,37,0,0,0,3,0,0,0,0,0,0,0,32,0,0,0,0,0,0,0,0,0,0,0,0,0,0,0,31,0,0,48,0,49,0|
0,0,0,0,0,0,0,0,0,0,0,0,0,0,0,0,0,0,0,0,0,0,49,0,0,48,24,0,0,0,32,0,0,0,0,0,0,0,0,1,0,0,0,0,0,0,15,0,0,0,0,4,0,0,0,39,0,0,0,9,22,17,0,0|
56,0,0,0,9,0,0,0,0,61,0,1,0,0,0,0,0,0,0,32,0,0,0,0,22,0,0,0,0,0,0,0,42,8,0,0,0,0,0,55,0,58,0,0,0,0,0,0,0,0,0,0,0,0,0,0,14,33,28,0,0,0,0,0|
0,0,28,0,63,0,0,0,0,25,0,0,0,0,0,0,56,0,0,0,0,54,0,0,62,0,0,0,0,0,0,0,0,0,48,0,0,0,53,0,19,5,0,0,0,0,0,0,0,0,0,0,0,34,30,0,0,40,0,0,0,0,0,10|
0,0,0,0,0,0,0,0,0,39,0,0,0,0,49,0,0,0,0,0,0,0,0,0,0,0,51,0,0,0,0,0,0,0,0,0,0,0,0,35,0,0,0,0,0,0,0,0,0,0,55,24,42,0,0,0,50,0,0,0,0,3,0,0|
0,0,0,0,0,0,26,0,41,0,0,0,0,14,0,0,0,0,7,0,0,0,0,0,0,0,0,0,52,0,0,0,0,0,0,0,0,0,0,22,0,36,29,0,33,0,0,0,13,0,0,0,0,0,0,0,0,0,1,0,0,0,0,0|
0,0,0,0,0,0,0,0,0,0,0,0,0,0,19,5,0,0,0,0,0,0,0,0,7,0,21,0,0,0,0,0,24,0,39,0,0,0,0,0,63,9,11,38,0,0,26,0,0,0,0,0,33,0,49,0,42,34,0,0,0,0,0,0|
0,0,0,0,0,0,0,0,13,0,0,0,32,0,0,0,0,45,63,0,0,7,0,0,0,0,0,0,26,0,0,0,0,48,0,0,39,0,41,56,29,0,16,31,0,0,0,0,0,0,0,49,0,0,0,0,33,0,0,59,17,44,0,0|
0,57,0,0,0,0,0,0,37,0,0,0,0,0,0,0,60,0,0,50,39,0,0,2,0,0,61,0,0,0,0,0,0,0,0,45,0,0,0,0,42,4,0,0,0,0,0,0,0,0,0,0,31,0,0,0,0,0,0,0,0,43,0,34|
0,0,0,0,0,0,0,0,2,0,0,0,0,0,0,61,0,0,0,0,0,12,0,43,0,0,0,48,31,0,0,0,0,0,0,0,0,0,0,0,0,0,0,0,50,0,0,0,0,0,25,0,0,0,0,15,0,0,0,0,0,0,0,0|
0,0,0,49,0,0,0,0,0,0,50,0,9,0,0,0,0,0,54,0,0,0,0,0,23,0,0,0,0,0,57,0,0,0,0,60,0,0,0,37,52,0,0,40,3,36,0,58,0,0,0,0,0,0,0,0,0,0,25,0,0,0,0,0|
25,31,0,0,0,0,0,0,0,35,0,33,0,0,54,0,19,0,11,0,17,0,0,0,0,0,16,0,40,0,58,0,0,0,0,0,0,8,21,0,0,41,0,0,0,0,0,0,0,0,10,36,0,4,0,0,0,0,0,57,0,55,0,0|
24,42,0,0,0,0,0,0,0,0,55,0,0,0,5,0,0,16,0,0,57,0,0,35,0,0,0,0,0,0,0,0,0,0,0,9,0,0,0,0,0,0,0,0,0,0,10,13,19,0,0,0,38,27,0,0,0,0,0,0,0,0,0,0|
52,0,0,0,0,0,62,0,0,49,0,0,0,0,0,0,0,0,0,0,0,0,0,59,0,39,0,0,0,0,0,0,0,0,0,0,0,0,0,0,0,0,0,0,0,0,0,0,0,0,46,0,0,0,0,0,0,0,50,2,54,14,35,0|
0,0,0,0,0,0,0,0,0,0,0,43,0,46,0,0,0,0,0,0,21,0,0,0,42,0,0,0,49,0,60,0,0,0,0,0,0,33,0,26,0,0,0,0,0,0,35,0,29,0,64,0,0,0,0,1,0,0,0,0,0,0,9,0|
0,0,0,0,0,0,0,0,0,0,0,0,0,0,0,0,0,0,0,0,0,0,0,0,0,0,7,0,54,0,0,0,0,45,40,0,0,0,0,0,0,0,0,0,0,37,18,0,0,0,0,0,0,0,0,0,0,0,0,0,0,0,0,0|
0,0,25,0,0,0,0,0,0,0,0,0,0,0,0,0,0,0,0,11,0,0,0,0,0,0,46,0,0,0,0,0,0,0,0,0,41,38,0,0,0,42,0,0,0,0,0,0,40,0,0,0,0,0,0,0,0,0,0,0,0,0,0,0|
9,23,0,41,29,0,0,27,0,0,0,0,0,0,0,0,0,0,0,0,0,0,0,0,47,0,0,0,35,0,0,36,0,0,0,0,0,0,0,0,0,0,0,0,0,53,43,0,0,0,0,22,0,0,0,0,0,0,54,0,0,0,0,42|
0,0,31,0,0,47,0,0,0,0,64,0,0,0,0,0,0,0,12,0,0,0,6,0,0,0,53,0,0,0,0,0,49,0,0,0,0,0,0,0,21,0,0,0,0,0,0,0,30,0,28,0,0,0,0,0,0,32,0,0,0,0,27,0|
0,0,0,0,11,0,0,0,0,0,0,23,0,0,0,0,7,0,0,0,0,0,0,0,0,0,0,0,0,0,0,0,0,0,4,0,0,0,0,0,0,0,0,0,0,0,0,0,0,0,16,0,0,0,0,53,0,0,0,0,0,0,0,33|
0,0,0,28,0,0,0,0,0,0,0,0,0,0,0,7,0,0,0,0,0,27,0,0,0,0,0,0,0,0,0,0,0,22,0,0,0,0,56,0,0,0,40,0,0,0,0,0,44,0,0,0,0,0,0,0,0,0,0,0,0,61,0,0|
0,0,0,0,0,0,0,0,0,0,0,0,0,28,0,33,0,15,0,0,0,59,0,63,0,0,0,0,22,0,0,0,0,23,0,0,0,0,0,14,0,29,0,0,0,0,0,0,0,0,0,0,0,0,0,0,0,0,0,0,8,0,0,0|
0,0,20,0,0,0,42,0,12,0,0,0,0,0,9,0,0,0,0,10,0,31,0,0,0,0,0,16,0,0,0,0,0,37,0,0,24,0,0,29,0,57,0,0,0,0,0,39,0,0,0,0,0,21,0,0,0,0,0,0,0,0,0,50|
0,0,0,23,0,0,0,0,45,0,0,0,0,0,0,0,0,57,0,0,46,0,12,51,0,49,0,1,0,0,8,0,0,0,27,0,0,0,0,0,0,25,0,0,61,0,24,0,0,0,0,0,0,0,0,0,39,0,0,0,13,0,0,0|
0,0,0,61,0,0,0,26,0,0,0,0,0,0,0,46,0,37,0,9,15,0,0,56,0,0,50,0,0,0,0,0,0,0,0,64,0,0,0,45,0,0,0,0,0,12,0,0,0,0,0,0,0,0,0,0,5,0,4,0,0,0,62,0|
0,0,0,0,0,0,0,0,0,0,37,0,0,0,0,24,0,11,0,0,0,0,0,0,45,0,0,0,0,0,0,19,0,5,63,0,0,0,0,57,0,62,0,0,0,0,0,0,0,15,0,0,0,0,0,16,0,0,0,0,0,54,22,0|
0,36,0,0,39,0,13,0,0,0,0,0,0,0,0,0,0,0,0,0,49,0,0,0,0,0,0,0,2,0,0,0,0,0,43,0,0,0,0,0,0,0,0,0,0,0,0,47,0,0,0,0,0,0,35,0,0,0,0,0,26,0,0,0|
0,0,0,0,0,0,0,0,39,59,0,0,0,0,0,0,17,0,0,0,0,0,0,0,0,0,6,0,29,0,0,0,0,0,0,0,0,0,54,0,0,0,0,0,15,0,2,0,0,0,0,14,0,0,0,0,0,0,35,0,0,0,0,0|
0,0,33,0,0,0,0,0,0,47,0,0,0,0,7,0,24,0,0,0,0,0,0,0,0,0,0,22,0,0,0,0,0,60,0,0,0,0,0,48,0,0,0,0,0,64,0,0,0,44,0,0,0,0,0,0,0,0,45,0,0,50,36,38|
46,0,0,0,0,0,0,62,0,0,0,0,0,30,0,0,43,53,0,0,0,0,0,0,0,13,0,0,39,5,0,0,0,0,0,0,0,0,0,0,0,0,21,0,0,0,0,0,0,0,0,0,0,0,0,0,0,0,10,0,0,0,0,6|
0,0,0,9,0,0,0,0,0,0,0,0,64,62,0,0,0,0,0,0,0,0,0,0,0,0,0,0,0,0,0,0,0,0,13,7,0,0,0,0,0,0,30,0,0,10,41,0,0,31,0,0,0,0,0,0,28,0,0,0,2,0,0,0|
0,0,0,0,0,0,0,0,0,0,0,0,0,0,0,0,0,0,0,0,0,11,37,0,0,40,52,0,0,0,0,0,0,1,59,35,0,0,8,16,0,0,0,0,46,0,0,0,0,0,0,0,0,0,55,0,0,0,0,4,56,0,0,0|
0,0,0,0,0,0,0,0,0,0,0,0,16,0,2,0,0,0,0,22,0,0,0,0,0,0,0,0,42,13,0,0,0,0,0,0,0,0,0,0,0,0,38,0,0,23,0,0,0,0,0,0,0,0,3,21,0,0,39,0,0,0,0,0|
41,0,0,0,0,0,64,0,0,50,0,0,4,0,0,0,26,60,0,0,0,0,0,0,0,0,0,0,0,25,0,0,0,14,0,0,0,0,0,0,0,0,0,2,0,0,0,0,0,35,0,0,0,0,0,0,0,0,27,0,0,0,40,0|
0,0,26,0,0,0,0,0,0,55,0,0,0,0,0,0,0,0,0,0,0,0,40,0,0,33,18,0,0,0,0,0,0,0,0,34,0,7,0,2,57,43,0,0,0,0,0,0,0,0,0,0,0,0,0,0,0,0,0,0,62,0,61,0|
0,0,0,0,0,0,0,0,42,33,59,0,63,0,0,0,1,0,3,14,36,0,0,0,0,0,8,0,0,0,0,39,0,0,0,0,0,0,0,0,0,0,55,0,0,0,4,0,0,64,0,0,0,46,0,0,0,50,0,0,0,0,0,21|
0,8,0,0,0,61,0,0,0,30,52,0,0,29,0,0,21,0,0,0,0,0,0,0,0,0,0,0,1,49,0,0,0,0,0,0,0,0,0,44,0,0,0,0,0,39,0,0,0,0,0,0,0,0,0,0,0,0,0,0,0,0,0,57|
0,0,0,0,0,59,34,0,0,62,17,0,0,0,0,44,52,39,42,0,0,0,0,31,38,0,0,50,0,0,0,0,0,0,0,0,0,0,0,0,0,0,36,0,0,0,14,0,0,13,0,0,0,5,0,0,0,0,0,0,0,0,32,0|
0,0,45,0,0,55,16,0,0,40,0,0,0,0,0,0,0,0,0,47,0,0,0,0,0,32,0,0,0,0,4,0,0,42,0,0,5,0,0,60,0,0,0,0,25,0,0,0,0,0,39,0,15,0,0,0,0,7,0,0,28,0,0,0|
0,0,0,0,30,44,0,0,0,0,0,0,0,0,0,28,49,0,0,31,0,0,45,0,24,0,0,62,12,0,0,0,0,46,1,0,0,0,16,0,0,0,34,0,0,0,0,0,0,8,0,0,51,0,20,0,0,0,0,0,0,5,0,0|
0,0,53,0,0,39,6,0,52,42,0,0,0,0,27,37,5,0,0,0,0,0,0,0,0,0,56,0,21,0,54,0,0,51,34,0,10,0,0,0,0,13,0,0,64,0,0,0,0,0,0,57,0,3,0,0,16,0,14,0,0,0,0,0|
0,0,0,0,34,45,0,0,0,0,0,0,0,0,0,31,0,0,0,3,0,0,0,0,0,0,0,0,0,0,0,0,0,0,0,0,0,13,23,0,0,0,37,0,0,0,0,0,18,0,0,0,0,0,0,0,0,39,0,0,0,0,0,0|
0,0,52,24,0,25,0,0,0,0,0,0,0,0,0,0,0,0,0,0,37,0,0,0,0,0,0,0,0,0,0,0,0,26,0,0,0,0,33,0,0,0,0,0,59,61,0,0,0,0,0,0,0,0,0,0,0,0,0,12,1,0,0,0|
0,0,0,0,0,0,0,0,0,0,0,3,0,8,59,0,0,0,0,16,0,0,28,0,0,0,0,0,0,0,0,0,0,0,22,0,29,0,0,17,0,0,0,39,0,0,0,0,0,41,0,0,0,0,0,49,0,0,0,0,0,0,0,0|
0,0,63,0,0,0,14,0,0,0,0,0,0,0,0,49,0,22,0,46,0,0,18,27,0,0,0,0,0,28,0,0,0,0,0,0,0,0,0,0,1,0,0,57,0,0,48,0,0,0,50,0,0,0,5,0,0,0,0,0,0,0,0,0|
0,0,0,0,0,0,0,46,0,0,35,0,0,0,0,0,0,0,0,58,0,0,0,0,5,0,0,0,0,0,0,48,0,0,0,0,0,0,0,0,0,0,0,0,43,22,54,0,0,0,0,0,0,11,0,0,0,0,0,0,0,59,0,8|
0,0,0,0,0,16,0,0,0,0,0,0,18,0,0,0,0,0,0,0,0,0,0,25,0,0,0,0,0,0,0,0,0,59,0,0,0,0,0,0,0,0,41,15,0,0,50,44,0,0,0,0,0,0,0,7,10,35,0,42,0,0,0,0|];